NPROCS=0
This instance is clustered!
Gurobi Optimizer version 9.0.0 build v9.0.0rc2 (linux64)
Optimize a model with 40 rows, 401 columns and 800 nonzeros
Model fingerprint: 0x195b504d
Variable types: 1 continuous, 400 integer (400 binary)
Coefficient statistics:
  Matrix range     [1e+00, 1e+00]
  Objective range  [1e+00, 4e+02]
  Bounds range     [1e+00, 1e+00]
  RHS range        [1e+00, 1e+00]
 done with super cut 0
Presolve removed 2 rows and 57 columns
Presolve time: 0.00s
Presolved: 38 rows, 344 columns, 686 nonzeros
Variable types: 1 continuous, 343 integer (343 binary)

Root relaxation: objective 7.254805e+02, 34 iterations, 0.00 seconds

    Nodes    |    Current Node    |     Objective Bounds      |     Work
 Expl Unexpl |  Obj  Depth IntInf | Incumbent    BestBd   Gap | It/Node Time

     0     0  737.81725    0   14          -  737.81725      -     -    0s
     0     0  862.09332    0   20          -  862.09332      -     -    0s
 done with super cut 1
 done with super cut 2
H    0     0                    1542.4392733  862.09332  44.1%     -    2s
     0     0  929.97226    0   10 1542.43927  929.97226  39.7%     -    2s
 done with super cut 3
 done with super cut 4
H    0     0                    1372.8257253  929.97226  32.3%     -    6s
     0     0  948.35733    0   32 1372.82573  948.35733  30.9%     -    6s
 done with super cut 5
 done with super cut 6
 done with super cut 7
 done with super cut 8
H    0     0                    1316.1070333  948.35733  27.9%     -   24s
 done with super cut 9
 done with super cut 10
H    0     0                    1187.5329269  948.35733  20.1%     -   36s
H    0     0                    1183.8580237  951.69650  19.6%     -   36s
     0     2  953.99954    0   42 1183.85802  953.99954  19.4%     -   36s
  6834  2300 1094.73171   24   46 1183.85802 1094.73171  7.53%   8.2   40s

Cutting planes:
  Gomory: 5
  Zero half: 7
  Mod-K: 2
  Lazy constraints: 264

Explored 19868 nodes (192700 simplex iterations) in 43.74 seconds
Thread count was 12 (of 12 available processors)

Solution count 5: 1183.86 1187.53 1316.11 ... 1542.44

Optimal solution found (tolerance 1.00e-04)
Best objective 1.183858023652e+03, best bound 1.183858023652e+03, gap 0.0000%

User-callback calls 43539, time in user-callback 36.64 sec
/projects/academic/josewalt/caigao/RRARP_BD/BendersDecomp/ret/model_outs/n_18_m_8_algo_4.out
 =====>>>>> Solution is written to file in <../ret/model_outs> !!!
===>> All Done!
